120
150
32
36
39
43
44
61
99
85
74
37
85
69
81
64
61
94
56
48
97
64
53
75
38
53
24
39
50
99
37
32
56
50
53
53
44
77
72
74
74
98
72
98
44
61
39
74
72
85
22
68
32
24
24
50
92
58
22
51
99
45
77
64
85
53
32
27
44
43
38
34
99
44
73
77
27
54
96
43
43
37
58
25
81
69
90
77
34
25
68
97
43
20
25
42
39
39
73
97
77
53
56
93
39
93
63
24
63
48
28
28
65
42
85
64
72
77
43
77
72
99
